c File: flat100_3_0.col
c
c SOURCE: Joseph Culberson (joe@cs.ualberta.ca)
c DESCRIPTION: Quasi-random coloring problem
c              generated with flatness = 0
c                             probability = 0.072
c                             known coloring = 3
c                             random seed = 1031
c              Creation Date:  Thu Jun  4 18:55:23 1998
c Maximum degree = 8 Minimum degree = 0
c p edge 100 239
c cnf created by edge2cnf
p cnf 300 1117
-1 -2 0
-1 -3 0
-2 -3 0
1 2 3 0
-4 -5 0
-4 -6 0
-5 -6 0
4 5 6 0
-7 -8 0
-7 -9 0
-8 -9 0
7 8 9 0
-10 -11 0
-10 -12 0
-11 -12 0
10 11 12 0
-13 -14 0
-13 -15 0
-14 -15 0
13 14 15 0
-16 -17 0
-16 -18 0
-17 -18 0
16 17 18 0
-19 -20 0
-19 -21 0
-20 -21 0
19 20 21 0
-22 -23 0
-22 -24 0
-23 -24 0
22 23 24 0
-25 -26 0
-25 -27 0
-26 -27 0
25 26 27 0
-28 -29 0
-28 -30 0
-29 -30 0
28 29 30 0
-31 -32 0
-31 -33 0
-32 -33 0
31 32 33 0
-34 -35 0
-34 -36 0
-35 -36 0
34 35 36 0
-37 -38 0
-37 -39 0
-38 -39 0
37 38 39 0
-40 -41 0
-40 -42 0
-41 -42 0
40 41 42 0
-43 -44 0
-43 -45 0
-44 -45 0
43 44 45 0
-46 -47 0
-46 -48 0
-47 -48 0
46 47 48 0
-49 -50 0
-49 -51 0
-50 -51 0
49 50 51 0
-52 -53 0
-52 -54 0
-53 -54 0
52 53 54 0
-55 -56 0
-55 -57 0
-56 -57 0
55 56 57 0
-58 -59 0
-58 -60 0
-59 -60 0
58 59 60 0
-61 -62 0
-61 -63 0
-62 -63 0
61 62 63 0
-64 -65 0
-64 -66 0
-65 -66 0
64 65 66 0
-67 -68 0
-67 -69 0
-68 -69 0
67 68 69 0
-70 -71 0
-70 -72 0
-71 -72 0
70 71 72 0
-73 -74 0
-73 -75 0
-74 -75 0
73 74 75 0
-76 -77 0
-76 -78 0
-77 -78 0
76 77 78 0
-79 -80 0
-79 -81 0
-80 -81 0
79 80 81 0
-82 -83 0
-82 -84 0
-83 -84 0
82 83 84 0
-85 -86 0
-85 -87 0
-86 -87 0
85 86 87 0
-88 -89 0
-88 -90 0
-89 -90 0
88 89 90 0
-91 -92 0
-91 -93 0
-92 -93 0
91 92 93 0
-94 -95 0
-94 -96 0
-95 -96 0
94 95 96 0
-97 -98 0
-97 -99 0
-98 -99 0
97 98 99 0
-100 -101 0
-100 -102 0
-101 -102 0
100 101 102 0
-103 -104 0
-103 -105 0
-104 -105 0
103 104 105 0
-106 -107 0
-106 -108 0
-107 -108 0
106 107 108 0
-109 -110 0
-109 -111 0
-110 -111 0
109 110 111 0
-112 -113 0
-112 -114 0
-113 -114 0
112 113 114 0
-115 -116 0
-115 -117 0
-116 -117 0
115 116 117 0
-118 -119 0
-118 -120 0
-119 -120 0
118 119 120 0
-121 -122 0
-121 -123 0
-122 -123 0
121 122 123 0
-124 -125 0
-124 -126 0
-125 -126 0
124 125 126 0
-127 -128 0
-127 -129 0
-128 -129 0
127 128 129 0
-130 -131 0
-130 -132 0
-131 -132 0
130 131 132 0
-133 -134 0
-133 -135 0
-134 -135 0
133 134 135 0
-136 -137 0
-136 -138 0
-137 -138 0
136 137 138 0
-139 -140 0
-139 -141 0
-140 -141 0
139 140 141 0
-142 -143 0
-142 -144 0
-143 -144 0
142 143 144 0
-145 -146 0
-145 -147 0
-146 -147 0
145 146 147 0
-148 -149 0
-148 -150 0
-149 -150 0
148 149 150 0
-151 -152 0
-151 -153 0
-152 -153 0
151 152 153 0
-154 -155 0
-154 -156 0
-155 -156 0
154 155 156 0
-157 -158 0
-157 -159 0
-158 -159 0
157 158 159 0
-160 -161 0
-160 -162 0
-161 -162 0
160 161 162 0
-163 -164 0
-163 -165 0
-164 -165 0
163 164 165 0
-166 -167 0
-166 -168 0
-167 -168 0
166 167 168 0
-169 -170 0
-169 -171 0
-170 -171 0
169 170 171 0
-172 -173 0
-172 -174 0
-173 -174 0
172 173 174 0
-175 -176 0
-175 -177 0
-176 -177 0
175 176 177 0
-178 -179 0
-178 -180 0
-179 -180 0
178 179 180 0
-181 -182 0
-181 -183 0
-182 -183 0
181 182 183 0
-184 -185 0
-184 -186 0
-185 -186 0
184 185 186 0
-187 -188 0
-187 -189 0
-188 -189 0
187 188 189 0
-190 -191 0
-190 -192 0
-191 -192 0
190 191 192 0
-193 -194 0
-193 -195 0
-194 -195 0
193 194 195 0
-196 -197 0
-196 -198 0
-197 -198 0
196 197 198 0
-199 -200 0
-199 -201 0
-200 -201 0
199 200 201 0
-202 -203 0
-202 -204 0
-203 -204 0
202 203 204 0
-205 -206 0
-205 -207 0
-206 -207 0
205 206 207 0
-208 -209 0
-208 -210 0
-209 -210 0
208 209 210 0
-211 -212 0
-211 -213 0
-212 -213 0
211 212 213 0
-214 -215 0
-214 -216 0
-215 -216 0
214 215 216 0
-217 -218 0
-217 -219 0
-218 -219 0
217 218 219 0
-220 -221 0
-220 -222 0
-221 -222 0
220 221 222 0
-223 -224 0
-223 -225 0
-224 -225 0
223 224 225 0
-226 -227 0
-226 -228 0
-227 -228 0
226 227 228 0
-229 -230 0
-229 -231 0
-230 -231 0
229 230 231 0
-232 -233 0
-232 -234 0
-233 -234 0
232 233 234 0
-235 -236 0
-235 -237 0
-236 -237 0
235 236 237 0
-238 -239 0
-238 -240 0
-239 -240 0
238 239 240 0
-241 -242 0
-241 -243 0
-242 -243 0
241 242 243 0
-244 -245 0
-244 -246 0
-245 -246 0
244 245 246 0
-247 -248 0
-247 -249 0
-248 -249 0
247 248 249 0
-250 -251 0
-250 -252 0
-251 -252 0
250 251 252 0
-253 -254 0
-253 -255 0
-254 -255 0
253 254 255 0
-256 -257 0
-256 -258 0
-257 -258 0
256 257 258 0
-259 -260 0
-259 -261 0
-260 -261 0
259 260 261 0
-262 -263 0
-262 -264 0
-263 -264 0
262 263 264 0
-265 -266 0
-265 -267 0
-266 -267 0
265 266 267 0
-268 -269 0
-268 -270 0
-269 -270 0
268 269 270 0
-271 -272 0
-271 -273 0
-272 -273 0
271 272 273 0
-274 -275 0
-274 -276 0
-275 -276 0
274 275 276 0
-277 -278 0
-277 -279 0
-278 -279 0
277 278 279 0
-280 -281 0
-280 -282 0
-281 -282 0
280 281 282 0
-283 -284 0
-283 -285 0
-284 -285 0
283 284 285 0
-286 -287 0
-286 -288 0
-287 -288 0
286 287 288 0
-289 -290 0
-289 -291 0
-290 -291 0
289 290 291 0
-292 -293 0
-292 -294 0
-293 -294 0
292 293 294 0
-295 -296 0
-295 -297 0
-296 -297 0
295 296 297 0
-298 -299 0
-298 -300 0
-299 -300 0
298 299 300 0
-106 -1 0
-107 -2 0
-108 -3 0
-160 -1 0
-161 -2 0
-162 -3 0
-199 -1 0
-200 -2 0
-201 -3 0
-277 -1 0
-278 -2 0
-279 -3 0
-112 -4 0
-113 -5 0
-114 -6 0
-148 -4 0
-149 -5 0
-150 -6 0
-157 -4 0
-158 -5 0
-159 -6 0
-172 -4 0
-173 -5 0
-174 -6 0
-205 -4 0
-206 -5 0
-207 -6 0
-151 -7 0
-152 -8 0
-153 -9 0
-265 -7 0
-266 -8 0
-267 -9 0
-274 -7 0
-275 -8 0
-276 -9 0
-106 -10 0
-107 -11 0
-108 -12 0
-205 -10 0
-206 -11 0
-207 -12 0
-235 -10 0
-236 -11 0
-237 -12 0
-250 -10 0
-251 -11 0
-252 -12 0
-253 -10 0
-254 -11 0
-255 -12 0
-115 -13 0
-116 -14 0
-117 -15 0
-187 -13 0
-188 -14 0
-189 -15 0
-265 -13 0
-266 -14 0
-267 -15 0
-112 -16 0
-113 -17 0
-114 -18 0
-115 -16 0
-116 -17 0
-117 -18 0
-157 -16 0
-158 -17 0
-159 -18 0
-190 -16 0
-191 -17 0
-192 -18 0
-292 -16 0
-293 -17 0
-294 -18 0
-112 -19 0
-113 -20 0
-114 -21 0
-139 -19 0
-140 -20 0
-141 -21 0
-166 -19 0
-167 -20 0
-168 -21 0
-172 -19 0
-173 -20 0
-174 -21 0
-211 -19 0
-212 -20 0
-213 -21 0
-223 -19 0
-224 -20 0
-225 -21 0
-244 -19 0
-245 -20 0
-246 -21 0
-286 -19 0
-287 -20 0
-288 -21 0
-172 -22 0
-173 -23 0
-174 -24 0
-184 -22 0
-185 -23 0
-186 -24 0
-196 -22 0
-197 -23 0
-198 -24 0
-202 -22 0
-203 -23 0
-204 -24 0
-241 -22 0
-242 -23 0
-243 -24 0
-289 -22 0
-290 -23 0
-291 -24 0
-133 -25 0
-134 -26 0
-135 -27 0
-175 -25 0
-176 -26 0
-177 -27 0
-214 -25 0
-215 -26 0
-216 -27 0
-223 -25 0
-224 -26 0
-225 -27 0
-250 -25 0
-251 -26 0
-252 -27 0
-268 -25 0
-269 -26 0
-270 -27 0
-142 -28 0
-143 -29 0
-144 -30 0
-223 -28 0
-224 -29 0
-225 -30 0
-238 -28 0
-239 -29 0
-240 -30 0
-241 -28 0
-242 -29 0
-243 -30 0
-298 -28 0
-299 -29 0
-300 -30 0
-142 -31 0
-143 -32 0
-144 -33 0
-154 -31 0
-155 -32 0
-156 -33 0
-286 -31 0
-287 -32 0
-288 -33 0
-121 -34 0
-122 -35 0
-123 -36 0
-166 -34 0
-167 -35 0
-168 -36 0
-208 -34 0
-209 -35 0
-210 -36 0
-220 -34 0
-221 -35 0
-222 -36 0
-298 -34 0
-299 -35 0
-300 -36 0
-136 -37 0
-137 -38 0
-138 -39 0
-145 -37 0
-146 -38 0
-147 -39 0
-163 -37 0
-164 -38 0
-165 -39 0
-295 -37 0
-296 -38 0
-297 -39 0
-106 -40 0
-107 -41 0
-108 -42 0
-118 -40 0
-119 -41 0
-120 -42 0
-160 -40 0
-161 -41 0
-162 -42 0
-220 -40 0
-221 -41 0
-222 -42 0
-229 -40 0
-230 -41 0
-231 -42 0
-232 -40 0
-233 -41 0
-234 -42 0
-295 -40 0
-296 -41 0
-297 -42 0
-124 -43 0
-125 -44 0
-126 -45 0
-127 -43 0
-128 -44 0
-129 -45 0
-154 -43 0
-155 -44 0
-156 -45 0
-157 -43 0
-158 -44 0
-159 -45 0
-235 -43 0
-236 -44 0
-237 -45 0
-238 -43 0
-239 -44 0
-240 -45 0
-109 -46 0
-110 -47 0
-111 -48 0
-112 -46 0
-113 -47 0
-114 -48 0
-166 -46 0
-167 -47 0
-168 -48 0
-202 -46 0
-203 -47 0
-204 -48 0
-286 -46 0
-287 -47 0
-288 -48 0
-109 -49 0
-110 -50 0
-111 -51 0
-133 -49 0
-134 -50 0
-135 -51 0
-160 -49 0
-161 -50 0
-162 -51 0
-172 -49 0
-173 -50 0
-174 -51 0
-217 -49 0
-218 -50 0
-219 -51 0
-256 -49 0
-257 -50 0
-258 -51 0
-109 -52 0
-110 -53 0
-111 -54 0
-145 -52 0
-146 -53 0
-147 -54 0
-193 -52 0
-194 -53 0
-195 -54 0
-196 -52 0
-197 -53 0
-198 -54 0
-223 -52 0
-224 -53 0
-225 -54 0
-250 -52 0
-251 -53 0
-252 -54 0
-268 -52 0
-269 -53 0
-270 -54 0
-190 -55 0
-191 -56 0
-192 -57 0
-241 -55 0
-242 -56 0
-243 -57 0
-178 -58 0
-179 -59 0
-180 -60 0
-109 -64 0
-110 -65 0
-111 -66 0
-157 -64 0
-158 -65 0
-159 -66 0
-253 -64 0
-254 -65 0
-255 -66 0
-271 -64 0
-272 -65 0
-273 -66 0
-280 -64 0
-281 -65 0
-282 -66 0
-283 -64 0
-284 -65 0
-285 -66 0
-148 -67 0
-149 -68 0
-150 -69 0
-154 -67 0
-155 -68 0
-156 -69 0
-244 -67 0
-245 -68 0
-246 -69 0
-292 -67 0
-293 -68 0
-294 -69 0
-298 -67 0
-299 -68 0
-300 -69 0
-118 -70 0
-119 -71 0
-120 -72 0
-142 -70 0
-143 -71 0
-144 -72 0
-145 -70 0
-146 -71 0
-147 -72 0
-205 -70 0
-206 -71 0
-207 -72 0
-268 -70 0
-269 -71 0
-270 -72 0
-106 -73 0
-107 -74 0
-108 -75 0
-214 -73 0
-215 -74 0
-216 -75 0
-229 -73 0
-230 -74 0
-231 -75 0
-241 -73 0
-242 -74 0
-243 -75 0
-169 -76 0
-170 -77 0
-171 -78 0
-184 -76 0
-185 -77 0
-186 -78 0
-187 -76 0
-188 -77 0
-189 -78 0
-190 -76 0
-191 -77 0
-192 -78 0
-244 -76 0
-245 -77 0
-246 -78 0
-154 -79 0
-155 -80 0
-156 -81 0
-166 -79 0
-167 -80 0
-168 -81 0
-175 -79 0
-176 -80 0
-177 -81 0
-193 -79 0
-194 -80 0
-195 -81 0
-202 -79 0
-203 -80 0
-204 -81 0
-214 -79 0
-215 -80 0
-216 -81 0
-235 -79 0
-236 -80 0
-237 -81 0
-283 -79 0
-284 -80 0
-285 -81 0
-163 -82 0
-164 -83 0
-165 -84 0
-199 -82 0
-200 -83 0
-201 -84 0
-211 -82 0
-212 -83 0
-213 -84 0
-124 -85 0
-125 -86 0
-126 -87 0
-193 -85 0
-194 -86 0
-195 -87 0
-232 -85 0
-233 -86 0
-234 -87 0
-250 -85 0
-251 -86 0
-252 -87 0
-286 -85 0
-287 -86 0
-288 -87 0
-127 -88 0
-128 -89 0
-129 -90 0
-130 -88 0
-131 -89 0
-132 -90 0
-160 -88 0
-161 -89 0
-162 -90 0
-184 -88 0
-185 -89 0
-186 -90 0
-232 -88 0
-233 -89 0
-234 -90 0
-280 -88 0
-281 -89 0
-282 -90 0
-151 -91 0
-152 -92 0
-153 -93 0
-190 -91 0
-191 -92 0
-192 -93 0
-214 -91 0
-215 -92 0
-216 -93 0
-280 -91 0
-281 -92 0
-282 -93 0
-289 -91 0
-290 -92 0
-291 -93 0
-295 -91 0
-296 -92 0
-297 -93 0
-136 -94 0
-137 -95 0
-138 -96 0
-217 -94 0
-218 -95 0
-219 -96 0
-283 -94 0
-284 -95 0
-285 -96 0
-268 -97 0
-269 -98 0
-270 -99 0
-274 -97 0
-275 -98 0
-276 -99 0
-280 -97 0
-281 -98 0
-282 -99 0
-295 -97 0
-296 -98 0
-297 -99 0
-133 -100 0
-134 -101 0
-135 -102 0
-148 -100 0
-149 -101 0
-150 -102 0
-202 -100 0
-203 -101 0
-204 -102 0
-232 -100 0
-233 -101 0
-234 -102 0
-283 -100 0
-284 -101 0
-285 -102 0
-205 -103 0
-206 -104 0
-207 -105 0
-268 -103 0
-269 -104 0
-270 -105 0
-271 -106 0
-272 -107 0
-273 -108 0
-229 -109 0
-230 -110 0
-231 -111 0
-235 -109 0
-236 -110 0
-237 -111 0
-292 -109 0
-293 -110 0
-294 -111 0
-277 -112 0
-278 -113 0
-279 -114 0
-280 -112 0
-281 -113 0
-282 -114 0
-208 -115 0
-209 -116 0
-210 -117 0
-247 -115 0
-248 -116 0
-249 -117 0
-220 -118 0
-221 -119 0
-222 -120 0
-256 -118 0
-257 -119 0
-258 -120 0
-283 -118 0
-284 -119 0
-285 -120 0
-256 -121 0
-257 -122 0
-258 -123 0
-214 -124 0
-215 -125 0
-216 -126 0
-268 -124 0
-269 -125 0
-270 -126 0
-205 -127 0
-206 -128 0
-207 -129 0
-250 -127 0
-251 -128 0
-252 -129 0
-265 -127 0
-266 -128 0
-267 -129 0
-271 -127 0
-272 -128 0
-273 -129 0
-238 -130 0
-239 -131 0
-240 -132 0
-277 -130 0
-278 -131 0
-279 -132 0
-208 -133 0
-209 -134 0
-210 -135 0
-211 -136 0
-212 -137 0
-213 -138 0
-214 -136 0
-215 -137 0
-216 -138 0
-217 -136 0
-218 -137 0
-219 -138 0
-286 -136 0
-287 -137 0
-288 -138 0
-214 -139 0
-215 -140 0
-216 -141 0
-217 -139 0
-218 -140 0
-219 -141 0
-220 -139 0
-221 -140 0
-222 -141 0
-277 -139 0
-278 -140 0
-279 -141 0
-232 -142 0
-233 -143 0
-234 -144 0
-271 -145 0
-272 -146 0
-273 -147 0
-205 -148 0
-206 -149 0
-207 -150 0
-223 -148 0
-224 -149 0
-225 -150 0
-220 -151 0
-221 -152 0
-222 -153 0
-229 -151 0
-230 -152 0
-231 -153 0
-280 -151 0
-281 -152 0
-282 -153 0
-295 -151 0
-296 -152 0
-297 -153 0
-283 -154 0
-284 -155 0
-285 -156 0
-250 -157 0
-251 -158 0
-252 -159 0
-253 -157 0
-254 -158 0
-255 -159 0
-265 -157 0
-266 -158 0
-267 -159 0
-271 -157 0
-272 -158 0
-273 -159 0
-205 -160 0
-206 -161 0
-207 -162 0
-208 -160 0
-209 -161 0
-210 -162 0
-217 -160 0
-218 -161 0
-219 -162 0
-286 -160 0
-287 -161 0
-288 -162 0
-208 -163 0
-209 -164 0
-210 -165 0
-274 -163 0
-275 -164 0
-276 -165 0
-280 -163 0
-281 -164 0
-282 -165 0
-289 -163 0
-290 -164 0
-291 -165 0
-223 -166 0
-224 -167 0
-225 -168 0
-241 -166 0
-242 -167 0
-243 -168 0
-259 -169 0
-260 -170 0
-261 -171 0
-268 -169 0
-269 -170 0
-270 -171 0
-220 -172 0
-221 -173 0
-222 -174 0
-247 -172 0
-248 -173 0
-249 -174 0
-238 -175 0
-239 -176 0
-240 -177 0
-289 -175 0
-290 -176 0
-291 -177 0
-223 -178 0
-224 -179 0
-225 -180 0
-214 -181 0
-215 -182 0
-216 -183 0
-217 -181 0
-218 -182 0
-219 -183 0
-235 -181 0
-236 -182 0
-237 -183 0
-298 -181 0
-299 -182 0
-300 -183 0
-265 -184 0
-266 -185 0
-267 -186 0
-292 -184 0
-293 -185 0
-294 -186 0
-223 -187 0
-224 -188 0
-225 -189 0
-244 -187 0
-245 -188 0
-246 -189 0
-256 -187 0
-257 -188 0
-258 -189 0
-265 -187 0
-266 -188 0
-267 -189 0
-250 -190 0
-251 -191 0
-252 -192 0
-256 -190 0
-257 -191 0
-258 -192 0
-259 -193 0
-260 -194 0
-261 -195 0
-247 -196 0
-248 -197 0
-249 -198 0
-286 -196 0
-287 -197 0
-288 -198 0
-241 -199 0
-242 -200 0
-243 -201 0
-247 -199 0
-248 -200 0
-249 -201 0
